60 300 197 166 153 168 178 154 163 162 157 184 161 154 166 177 167 152 155 181 195 176 193 178 175 158 197 177 154 166 159 154 172 181 170 175 173 172 153 186 184 160 169 170 189 159 197 156 162 176 161 181 152 153 158 151 187 179 152 191 195 162 